1 37 67 74 57 77 52 114 69 116 61 120 58 121 118 109 40 108 115 66 80 65 71 42 51 75 73 88 87 72 9 83 68 86 85 81 84 45 70 43 79 76 78 94 105 100 101 99 104 107 98 106 103 102 92 59 96 93 97 89 90 91 95 17 16 82 14 13 15 54 21 18 63 19 20 39 38 35 34 60 32 30 64 44 48 49 31 110 55 112 117 113 111 119 3 50 2 36 29 26 62 41 47 22 23 24 25 46 33 56 127 12 6 7 8 5 11 10 4 53 27 124 123 126 125 28 122
